submitit INFO (2023-05-02 20:04:34,852) - Starting with JobEnvironment(job_id=27758, hostname=cpunode3, local_rank=4(5), node=0(1), global_rank=4(5))
submitit INFO (2023-05-02 20:04:34,852) - Loading pickle: /h/30/pashootan/Matrix-Mult-CP/src/../logs/4/2x3x2_11_May02_20:04:32/27758_submitted.pkl
 ! --------------------------------------------------- CP Optimizer 22.1.1.0 --
 ! Satisfiability problem - 176 variables, 144 constraints
 ! TimeLimit            = 7200
 ! Workers              = 8
 ! LogPeriod            = 10000000
 ! RandomSeed           = 6683
 ! Initial process time : 0.02s (0.02s extraction + 0.00s propagation)
 !  . Log search space  : 279.0 (before), 279.0 (after)
 !  . Memory usage      : 949.5 kB (before), 949.5 kB (after)
 ! Using parallel search with 8 workers.
 ! ----------------------------------------------------------------------------
 !               Branches  Non-fixed    W       Branch decision
 *                  6138k  71.50s       2         0  = U9_2
 ! ----------------------------------------------------------------------------
 ! Search completed, 1 solution found.
 ! ----------------------------------------------------------------------------
 ! Number of branches     : 48817993
 ! Number of fails        : 22636847
 ! Total memory usage     : 52.8 MB (52.7 MB CP Optimizer + 0.1 MB Concert)
 ! Time spent in solve    : 71.52s (71.50s engine + 0.02s extraction)
 ! Search speed (br. / s) : 682864.6
 ! ----------------------------------------------------------------------------
Feasible
Model is valid
Saving solution to: /h/30/pashootan/Matrix-Mult-CP/logs/4/2x3x2_11_May02_20:04:32/27758_4_solution.txt
Saving stats to: /h/30/pashootan/Matrix-Mult-CP/logs/4/2x3x2_11_May02_20:04:32/27758_4_stats.csv
submitit INFO (2023-05-02 20:05:47,036) - Job completed successfully
